
  32    1
  10

   0   0   8 2 3 4 5 7 8 11 12 
  10   1   3 19 9 6 
   5   5   6 21 20 19 16 14 10 
   1   2   4 20 17 15 9 
  10   3   2 13 9 
   5   1   5 31 21 20 17 15 
   6   1   5 31 21 18 16 14 
   1   1   4 31 21 16 15 
   6   2   5 31 25 24 21 16 
   3   4   5 31 30 25 18 17 
   6   2   7 31 29 28 25 24 23 21 
  10   2   6 31 29 25 22 19 18 
   2   2   5 31 29 28 21 20 
   7   2   6 29 28 25 24 23 22 
  10   1   3 30 29 18 
   7   1   4 29 28 23 22 
   9   2   4 29 28 24 22 
   7   2   4 28 27 24 23 
   2   5   4 28 27 24 23 
  10   2   3 30 27 23 
  10   4   2 30 22 
   2   1   2 27 26 
   1   1   1 26 
   2   3   1 26 
   2   3   1 26 
   7   2   1 32
   3   1   1 32
   5   1   1 32
   2   1   1 32
   3   1   1 32
   6   1   1 32
   0   0   0 
